(set-logic QF_BV)
(declare-fun ackout_1 () (_ BitVec 1))
(declare-fun ackout_0 () (_ BitVec 1))
(declare-fun clock_1 () (_ BitVec 1))
(declare-fun clock_2 () (_ BitVec 1))
(declare-fun clock_3 () (_ BitVec 1))
(declare-fun cont_eql_1 () (_ BitVec 1))
(declare-fun eql_1 () (_ BitVec 1))
(declare-fun eql_2 () (_ BitVec 1))
(declare-fun reset_1 () (_ BitVec 1))
(declare-fun reset_2 () (_ BitVec 1))
(declare-fun reset_3 () (_ BitVec 1))
(declare-fun state_2 () (_ BitVec 4))
(define-fun $e1 () (_ BitVec 4) (_ bv0 4))
(define-fun $e2 () (_ BitVec 4) (_ bv14 4))
(define-fun $e3 () (_ BitVec 4) (_ bv10 4))
(define-fun $e4 () (_ BitVec 4) (_ bv2 4))
(define-fun $e5 () (_ BitVec 4) (_ bv12 4))
(define-fun $e6 () (_ BitVec 4) (_ bv4 4))
(define-fun $e7 () (_ BitVec 4) (_ bv6 4))
(define-fun $e8 () (_ BitVec 1) (ite (= reset_1 reset_2) #b1 #b0))
(define-fun $e9 () (_ BitVec 1) (ite (= clock_1 clock_2) #b1 #b0))
(define-fun $e10 () (_ BitVec 1) (bvand $e8 $e9))
(define-fun $e11 () (_ BitVec 1) (bvand clock_1 (bvnot $e9)))
(define-fun $e12 () (_ BitVec 1) (ite (= reset_2 reset_3) #b1 #b0))
(define-fun $e13 () (_ BitVec 1) (ite (= clock_2 clock_3) #b1 #b0))
(define-fun $e14 () (_ BitVec 1) (bvand $e12 $e13))
(define-fun $e15 () (_ BitVec 1) (bvand clock_2 (bvnot $e13)))
(define-fun $e16 () (_ BitVec 1) (ite (= state_2 $e1) #b1 #b0))
(define-fun $e17 () (_ BitVec 1) (ite (= state_2 (bvnot $e2)) #b1 #b0))
(define-fun $e18 () (_ BitVec 1) (ite (= state_2 (bvnot $e3)) #b1 #b0))
(define-fun $e19 () (_ BitVec 1) (ite (= state_2 $e4) #b1 #b0))
(define-fun $e20 () (_ BitVec 1) (ite (= state_2 (bvnot $e5)) #b1 #b0))
(define-fun $e21 () (_ BitVec 1) (ite (= state_2 $e6) #b1 #b0))
(define-fun $e22 () (_ BitVec 1) (ite (= state_2 $e7) #b1 #b0))
(define-fun $e23 () (_ BitVec 1) (bvand (bvnot $e15) $e16))
(define-fun $e24 () (_ BitVec 1) (bvand (bvnot reset_2) (bvnot $e23)))
(define-fun $e25 () (_ BitVec 1) (bvand $e14 (bvnot $e16)))
(define-fun $e26 () (_ BitVec 1) (bvand (bvnot $e14) $e24))
(define-fun $e27 () (_ BitVec 1) (bvand (bvnot $e25) (bvnot $e26)))
(define-fun $e28 () (_ BitVec 1) (bvand ackout_0 cont_eql_1))
(define-fun $e29 () (_ BitVec 1) (bvand (bvnot ackout_0) (bvnot cont_eql_1)))
(define-fun $e30 () (_ BitVec 1) (bvand (bvnot $e28) (bvnot $e29)))
(define-fun $e31 () (_ BitVec 1) (bvand eql_2 $e22))
(define-fun $e32 () (_ BitVec 1) (bvand (bvnot $e17) (bvnot $e22)))
(define-fun $e33 () (_ BitVec 1) (bvand (bvnot $e31) (bvnot $e32)))
(define-fun $e34 () (_ BitVec 1) (bvand (bvnot $e21) $e33))
(define-fun $e35 () (_ BitVec 1) (bvand eql_2 $e20))
(define-fun $e36 () (_ BitVec 1) (bvand (bvnot $e20) (bvnot $e34)))
(define-fun $e37 () (_ BitVec 1) (bvand (bvnot $e35) (bvnot $e36)))
(define-fun $e38 () (_ BitVec 1) (bvand (bvnot $e19) $e37))
(define-fun $e39 () (_ BitVec 1) (bvand eql_2 $e18))
(define-fun $e40 () (_ BitVec 1) (bvand (bvnot $e18) (bvnot $e38)))
(define-fun $e41 () (_ BitVec 1) (bvand (bvnot $e39) (bvnot $e40)))
(define-fun $e42 () (_ BitVec 1) (bvand (bvnot $e17) $e41))
(define-fun $e43 () (_ BitVec 1) (bvand (bvnot $e16) (bvnot $e42)))
(define-fun $e44 () (_ BitVec 1) (bvand $e15 $e43))
(define-fun $e45 () (_ BitVec 1) (bvand (bvnot $e15) (bvnot $e17)))
(define-fun $e46 () (_ BitVec 1) (bvand (bvnot $e44) (bvnot $e45)))
(define-fun $e47 () (_ BitVec 1) (bvand (bvnot reset_2) $e46))
(define-fun $e48 () (_ BitVec 1) (bvand $e14 (bvnot $e17)))
(define-fun $e49 () (_ BitVec 1) (bvand (bvnot $e14) (bvnot $e47)))
(define-fun $e50 () (_ BitVec 1) (bvand (bvnot $e48) (bvnot $e49)))
(define-fun $e51 () (_ BitVec 1) (bvand (bvnot eql_2) $e17))
(define-fun $e52 () (_ BitVec 1) (bvand (bvnot $e16) $e51))
(define-fun $e53 () (_ BitVec 1) (bvand $e15 (bvnot $e52)))
(define-fun $e54 () (_ BitVec 1) (bvand (bvnot $e15) (bvnot $e18)))
(define-fun $e55 () (_ BitVec 1) (bvand (bvnot $e53) (bvnot $e54)))
(define-fun $e56 () (_ BitVec 1) (bvand (bvnot reset_2) $e55))
(define-fun $e57 () (_ BitVec 1) (bvand $e14 (bvnot $e18)))
(define-fun $e58 () (_ BitVec 1) (bvand (bvnot $e14) (bvnot $e56)))
(define-fun $e59 () (_ BitVec 1) (bvand (bvnot $e57) (bvnot $e58)))
(define-fun $e60 () (_ BitVec 1) (bvand eql_2 $e19))
(define-fun $e61 () (_ BitVec 1) (bvand (bvnot $e18) $e60))
(define-fun $e62 () (_ BitVec 1) (bvand (bvnot $e17) (bvnot $e61)))
(define-fun $e63 () (_ BitVec 1) (bvand (bvnot $e51) (bvnot $e62)))
(define-fun $e64 () (_ BitVec 1) (bvand (bvnot $e16) $e63))
(define-fun $e65 () (_ BitVec 1) (bvand $e15 (bvnot $e64)))
(define-fun $e66 () (_ BitVec 1) (bvand (bvnot $e15) (bvnot $e19)))
(define-fun $e67 () (_ BitVec 1) (bvand (bvnot $e65) (bvnot $e66)))
(define-fun $e68 () (_ BitVec 1) (bvand (bvnot reset_2) $e67))
(define-fun $e69 () (_ BitVec 1) (bvand $e14 (bvnot $e19)))
(define-fun $e70 () (_ BitVec 1) (bvand (bvnot $e14) (bvnot $e68)))
(define-fun $e71 () (_ BitVec 1) (bvand (bvnot $e69) (bvnot $e70)))
(define-fun $e72 () (_ BitVec 1) (bvand eql_1 (bvnot $e30)))
(define-fun $e73 () (_ BitVec 1) (bvand (bvnot ackout_0) (bvnot eql_1)))
(define-fun $e74 () (_ BitVec 1) (bvand (bvnot $e72) (bvnot $e73)))
(define-fun $e75 () (_ BitVec 1) (bvand $e71 (bvnot $e74)))
(define-fun $e76 () (_ BitVec 1) (bvand (bvnot $e30) (bvnot $e71)))
(define-fun $e77 () (_ BitVec 1) (bvand (bvnot $e75) (bvnot $e76)))
(define-fun $e78 () (_ BitVec 1) (bvand (bvnot $e30) $e59))
(define-fun $e79 () (_ BitVec 1) (bvand (bvnot $e59) (bvnot $e77)))
(define-fun $e80 () (_ BitVec 1) (bvand (bvnot $e78) (bvnot $e79)))
(define-fun $e81 () (_ BitVec 1) (bvand (bvnot $e30) $e50))
(define-fun $e82 () (_ BitVec 1) (bvand (bvnot $e50) (bvnot $e80)))
(define-fun $e83 () (_ BitVec 1) (bvand (bvnot $e81) (bvnot $e82)))
(define-fun $e84 () (_ BitVec 1) (bvand $e27 (bvnot $e30)))
(define-fun $e85 () (_ BitVec 1) (bvand (bvnot $e27) (bvnot $e83)))
(define-fun $e86 () (_ BitVec 1) (bvand (bvnot $e84) (bvnot $e85)))
(define-fun $e87 () (_ BitVec 1) (ite (= ackout_1 ackout_0) #b1 #b0))
(define-fun $e88 () (_ BitVec 1) (bvand $e11 (bvnot $e86)))
(define-fun $e89 () (_ BitVec 1) (bvand (bvnot $e11) (bvnot $e87)))
(define-fun $e90 () (_ BitVec 1) (bvand (bvnot $e88) (bvnot $e89)))
(define-fun $e91 () (_ BitVec 1) (bvand ackout_0 reset_1))
(define-fun $e92 () (_ BitVec 1) (bvand (bvnot reset_1) (bvnot $e90)))
(define-fun $e93 () (_ BitVec 1) (bvand (bvnot $e91) (bvnot $e92)))
(define-fun $e94 () (_ BitVec 1) (bvand $e10 (bvnot $e87)))
(define-fun $e95 () (_ BitVec 1) (bvand (bvnot $e10) (bvnot $e93)))
(assert (not (= (bvnot $e94) #b0)))
(assert (not (= (bvnot $e95) #b0)))
(check-sat)
(exit)
